package kokkos
# simple LJ system
atom_style atomic
lattice fcc 0.8442
region box block 0 5 0 5 0 5
create_box 1 box
create_atoms 1 box
mass 1 1.0
velocity all create 1.0 1234

pair_style lj/cut 2.5
pair_coeff 1 1 1.0 1.0 2.5

fix 1 all nve
run 1000
